#pLT is two-dimensional [i,r]=[component, individual]
#[i,*] means all data in row i.

param pLT := 
[1,*]
1  0    2  2    3  5    4  7    5  8    6  2    

[2,*]
1  1    2  3    3  5    4  6    5  1    6  3    
;